RT is False
Default write of storage_offers_DA.csv just to have a file (but constraint should be inactive)
Reading model...
...model read.
creating competitive generators file...
...competitive generators recorded.
Loading data...
.. day-ahead data with real-time VRE data read.
Compiling instance...
...instance created.
Creating Offer Mitigation (model will solve as dispatch if TRUE)...
NOTE: storage offers will not be mitigated
...storage offer mitigation file created
Converting model to MPEC...
...converted
NOTE: initial MIP solve with only storage competitive to get feasible solution
Solving...

Welcome to IBM(R) ILOG(R) CPLEX(R) Interactive Optimizer 12.9.0.0
  with Simplex, Mixed Integer & Barrier Optimizers
5725-A06 5725-A29 5724-Y48 5724-Y49 5724-Y54 5724-Y55 5655-Y21
Copyright IBM Corp. 1988, 2019.  All Rights Reserved.

Type 'help' for a list of available commands.
Type 'help' followed by a command name for more
information on commands.

CPLEX> Logfile 'cplex.log' closed.
Logfile 'C:\Users\llavin\Desktop\test919\logs\tmpxa9o48lv.cplex.log' open.
CPLEX> New value for parallel optimization mode: -1
CPLEX> New value for mixed integer optimality gap tolerance: 0.01
CPLEX> New value for integrality tolerance: 1e-09
CPLEX> New value for feasibility tolerance: 0.01
CPLEX> New value for deterministic time limit in ticks: 75000
CPLEX> Problem 'C:\Users\llavin\Desktop\test919\logs\tmpaj2l2ox9.pyomo.lp' read.
Read time = 0.23 sec. (14.73 ticks)
CPLEX> Problem name         : C:\Users\llavin\Desktop\test919\logs\tmpaj2l2ox9.pyomo.lp
Objective sense      : Maximize
Variables            :   53805  [Nneg: 1,  Box: 22000,  Free: 4464,
                                 Binary: 27340]
Objective nonzeros   :    9029
Linear constraints   :  123205  [Less: 41346,  Greater: 59096,  Equal: 22763]
  Nonzeros           :  291753
  RHS nonzeros       :   67491

Variables            : Min LB: -5000.000        Max UB: 1000000.       
Objective nonzeros   : Min   : 0.008333333      Max   : 2500.000       
Linear constraints   :
  Nonzeros           : Min   : 0.008333333      Max   : 1000000.       
  RHS nonzeros       : Min   : 0.008333333      Max   : 1000000.       
CPLEX> CPXPARAM_Parallel                                -1
CPXPARAM_Simplex_Tolerances_Feasibility          0.01
CPXPARAM_DetTimeLimit                            75000
CPXPARAM_MIP_Tolerances_MIPGap                   0.01
CPXPARAM_MIP_Tolerances_Integrality              1.0000000000000001e-09
Tried aggregator 3 times.
MIP Presolve eliminated 88638 rows and 18962 columns.
MIP Presolve added 3376 rows and 0 columns.
MIP Presolve modified 24807 coefficients.
Aggregator did 12981 substitutions.
Reduced MIP has 24962 rows, 21306 columns, and 71183 nonzeros.
Reduced MIP has 8422 binaries, 0 generals, 0 SOSs, and 0 indicators.
Presolve time = 0.28 sec. (173.41 ticks)
Probing fixed 419 vars, tightened 2903 bounds.
Probing time = 1.25 sec. (899.01 ticks)
Tried aggregator 2 times.
MIP Presolve eliminated 948 rows and 840 columns.
MIP Presolve modified 2213 coefficients.
Aggregator did 37 substitutions.
Reduced MIP has 23977 rows, 20429 columns, and 68326 nonzeros.
Reduced MIP has 8003 binaries, 0 generals, 0 SOSs, and 0 indicators.
Presolve time = 0.11 sec. (69.67 ticks)
Probing time = 0.05 sec. (16.35 ticks)
Clique table members: 6370.
MIP emphasis: balance optimality and feasibility.
MIP search method: dynamic search.
Parallel mode: opportunistic, using up to 32 threads.
Root relaxation solution time = 0.44 sec. (534.52 ticks)

        Nodes                                         Cuts/
   Node  Left     Objective  IInf  Best Integer    Best Bound    ItCnt     Gap

      0     0        0.0000   712                      0.0000     6249         
*     0+    0                            0.0000        0.0000             0.00%
      0     0        cutoff              0.0000        0.0000     6249    0.00%
Elapsed time = 3.89 sec. (2955.17 ticks, tree = 0.01 MB, solutions = 1)

Root node processing (before b&c):
  Real time             =    3.91 sec. (2957.00 ticks)
Parallel b&c, 32 threads:
  Real time             =    0.00 sec. (0.00 ticks)
  Sync time (average)   =    0.00 sec.
  Wait time (average)   =    0.00 sec.
                          ------------
Total (root+branch&cut) =    3.91 sec. (2957.00 ticks)

Solution pool: 1 solution saved.

MIP - Integer optimal solution:  Objective =  1.8044374883e-09
Solution time =    3.92 sec.  Iterations = 6249  Nodes = 0
Deterministic time = 2957.16 ticks  (753.99 ticks/sec)

CPLEX> Incumbent solution written to file 'C:\Users\llavin\Desktop\test919\logs\tmpc_h603rh.cplex.sol'.
CPLEX> NOTE: no warmstart specified for MIP iteration, default behavior is true
NOTE: resolving with all competitive generators using storage-only solution to warmstart
Solving...

Welcome to IBM(R) ILOG(R) CPLEX(R) Interactive Optimizer 12.9.0.0
  with Simplex, Mixed Integer & Barrier Optimizers
5725-A06 5725-A29 5724-Y48 5724-Y49 5724-Y54 5724-Y55 5655-Y21
Copyright IBM Corp. 1988, 2019.  All Rights Reserved.

Type 'help' for a list of available commands.
Type 'help' followed by a command name for more
information on commands.

CPLEX> Logfile 'cplex.log' closed.
Logfile 'C:\Users\llavin\Desktop\test919\logs\tmpp56tqx2o.cplex.log' open.
CPLEX> New value for parallel optimization mode: -1
CPLEX> New value for mixed integer optimality gap tolerance: 0.01
CPLEX> New value for integrality tolerance: 1e-09
CPLEX> New value for feasibility tolerance: 0.01
CPLEX> New value for deterministic time limit in ticks: 75000
CPLEX> Problem 'C:\Users\llavin\Desktop\test919\logs\tmp3gcujac8.pyomo.lp' read.
Read time = 0.25 sec. (14.75 ticks)
CPLEX> MIP start file 'C:\Users\llavin\Desktop\test919\logs\tmp7eosxm3n.cplex.mst' read.
CPLEX> Problem name         : C:\Users\llavin\Desktop\test919\logs\tmp3gcujac8.pyomo.lp
Objective sense      : Maximize
Variables            :   54525  [Nneg: 1,  Box: 22720,  Free: 4464,
                                 Binary: 27340]
Objective nonzeros   :    9725
Linear constraints   :  123205  [Less: 41346,  Greater: 59096,  Equal: 22763]
  Nonzeros           :  291753
  RHS nonzeros       :   67491

Variables            : Min LB: -5000.000        Max UB: 1000000.       
Objective nonzeros   : Min   : 0.008333333      Max   : 2500.000       
Linear constraints   :
  Nonzeros           : Min   : 0.008333333      Max   : 1000000.       
  RHS nonzeros       : Min   : 0.008333333      Max   : 1000000.       
CPLEX> CPXPARAM_Parallel                                -1
CPXPARAM_Simplex_Tolerances_Feasibility          0.01
CPXPARAM_DetTimeLimit                            75000
CPXPARAM_MIP_Tolerances_MIPGap                   0.01
CPXPARAM_MIP_Tolerances_Integrality              1.0000000000000001e-09
Warning:  No solution found from 1 MIP starts.
Retaining values of one MIP start for possible repair.
Tried aggregator 3 times.
MIP Presolve eliminated 88638 rows and 19682 columns.
MIP Presolve added 3376 rows and 0 columns.
MIP Presolve modified 24807 coefficients.
Aggregator did 12981 substitutions.
Reduced MIP has 24962 rows, 21306 columns, and 71183 nonzeros.
Reduced MIP has 8422 binaries, 0 generals, 0 SOSs, and 0 indicators.
Presolve time = 0.30 sec. (173.77 ticks)
Probing fixed 419 vars, tightened 2903 bounds.
Probing time = 1.25 sec. (899.01 ticks)
Tried aggregator 2 times.
MIP Presolve eliminated 948 rows and 840 columns.
MIP Presolve modified 2213 coefficients.
Aggregator did 37 substitutions.
Reduced MIP has 23977 rows, 20429 columns, and 68326 nonzeros.
Reduced MIP has 8003 binaries, 0 generals, 0 SOSs, and 0 indicators.
Presolve time = 0.11 sec. (69.67 ticks)
Probing time = 0.03 sec. (16.35 ticks)
Clique table members: 6370.
MIP emphasis: balance optimality and feasibility.
MIP search method: dynamic search.
Parallel mode: opportunistic, using up to 32 threads.
Root relaxation solution time = 0.36 sec. (282.23 ticks)

        Nodes                                         Cuts/
   Node  Left     Objective  IInf  Best Integer    Best Bound    ItCnt     Gap

      0     0   177325.8757  1829                 177325.8757     6880         
      0     0   173718.0186   638                   Cuts: 678     7262         
      0     0   173043.0305   547                   Cuts: 287     7396         
      0     0   172907.6148   537                   Cuts: 134     7483         
      0     0   170769.9307   508                   Cuts: 120     7556         
      0     0   170568.3613   482                   Cuts: 112     7606         
      0     0   170566.7964   466                    Cuts: 59     7620         
      0     0   170564.7712   466                    Cuts: 65     7635         
      0     0   170563.9444   429                    Cuts: 76     7670         
      0     0   167015.5972   422                    Cuts: 55     7710         
      0     0   166891.8945   425                    Cuts: 58     7733         
      0     0   166838.2188   426                    Cuts: 52     7746         
      0     0   166767.3527   425                    Cuts: 49     7758         
      0     0   163990.8813   422                    Cuts: 47     7765         
      0     0   163916.0495   422                    Cuts: 49     7775         
      0     0   163866.7013   421                    Cuts: 42     7776         
      0     0   163866.7013   421                    Cuts: 40     7776         
Repair heuristic found nothing.
      0     3   159930.6228   410                    Cuts: 30     7809         
Elapsed time = 14.09 sec. (8041.23 ticks, tree = 0.02 MB, solutions = 0)
    352   151    65178.3649   343                 156821.3301    16544         
    584   288    42152.9513   316                 156821.3301    28160         
   1119   572    53605.6821   323                 156821.3301    36357         
   1669   803    infeasible                       156821.3301    47381         
   2274   969    infeasible                       156821.3301    53493         
   2829  1443    -1420.1805   266                 156821.3301    66084         
   3437  1424    infeasible                       156821.3301    66042         
   4168  2199    -2691.6281   225                 156821.3301    75080         
   4926  2179     9916.1199   291                 156821.3301    75063         
   8637  5309  -159799.2688   296                 156821.3301    90503         
Elapsed time = 31.89 sec. (11144.82 ticks, tree = 40.57 MB, solutions = 0)
*  9846+ 4657                       -14431.2548   156821.3301              --- 
  11297  5777        cutoff         -14431.2548    38680.8835   122689  368.04%
  12916    77    20171.7580    65   -14431.2548    38680.8835   124210  368.04%
  14402   814     4520.7936    59   -14431.2548    38680.8835   130349  368.04%
  15845  3170    20278.7550    77   -14431.2548    38680.8835   146900  368.04%
* 15889  3566      integral     0     2369.9762    38680.8835   149756     --- 
* 17214  3504      integral     0     6223.5151    38680.8835   149487  521.53%
  18732  1892     7764.0671    62     6223.5151    25847.7044   151764  315.32%
  21901  2539     6696.7724    64     6817.2663    25769.8076   161111  278.01%
  24975  4154     9993.6186    77    10272.4167    22555.3383   180179  119.57%
  27897  2853        cutoff          10272.4167    21807.3108   197394  112.29%
* 29593  2895      integral     0    16334.1840    21218.1577   200245   29.90%
  30553  2891        cutoff          16334.1840    21218.1577   203535   29.90%
Elapsed time = 86.58 sec. (24757.97 ticks, tree = 72.06 MB, solutions = 34)
  33173  2690    17908.2034    76    16334.1840    21218.1577   267351   29.90%
  35884  3076    17050.1046    71    16334.1840    18810.0938   279080   15.16%
  38734  3135        cutoff          16334.1840    18810.0938   285499   15.16%
  41702  4091    17476.7166    67    16334.1840    18243.6517   326759   11.69%
* 42757  4120      integral     0    17506.4787    18126.0015   329541    3.54%
* 44129  2257      integral     0    17511.4800    18126.0015   340231    3.51%
  44190  2321    17326.4464    12    17511.4800    18126.0015   337808    3.51%
  44988  2302    17539.8963    31    17511.4800    18126.0015   342560    3.51%
  45341  2889    10441.3480    74    17511.4800    18126.0015   203761    3.51%
  45587  2441    18235.7440    83    17511.4800    18126.0015   242102    3.51%
  45731  2865    16339.4519    75    17511.4800    18126.0015   273688    3.51%
  45824  3431    17817.1437    69    17511.4800    18126.0015   306362    3.51%
Elapsed time = 111.11 sec. (34345.76 ticks, tree = 35.04 MB, solutions = 59)
  45919  3860    17558.0017    66    17511.4800    18126.0015   322476    3.51%

GUB cover cuts applied:  2
Clique cuts applied:  1
Cover cuts applied:  38
Implied bound cuts applied:  7
Flow cuts applied:  337
Mixed integer rounding cuts applied:  42
Zero-half cuts applied:  2
Gomory fractional cuts applied:  73

Root node processing (before b&c):
  Real time             =   12.47 sec. (8039.00 ticks)
Parallel b&c, 32 threads:
  Real time             =   99.05 sec. (28243.00 ticks)
  Sync time (average)   =    5.08 sec.
  Wait time (average)   =    0.25 sec.
                          ------------
Total (root+branch&cut) =  111.52 sec. (36282.00 ticks)

Solution pool: 59 solutions saved.

MIP - Integer optimal, tolerance (0.01/1e-06):  Objective =  1.7511479992e+04
Current MIP best bound =  1.7617798261e+04 (gap = 106.318, 0.61%)
Solution time =  111.58 sec.  Iterations = 352827  Nodes = 46020 (444)
Deterministic time = 36282.16 ticks  (325.17 ticks/sec)

CPLEX> Incumbent solution written to file 'C:\Users\llavin\Desktop\test919\logs\tmpa87p6is7.cplex.sol'.
CPLEX> Exporting results... 
